(set-info :smt-lib-version 2.6)
(set-logic QF_S)
(set-info :source |
Generated by: Murphy Berzish, Mitja Kulczynski, Federico Mora, Florin Manea, Joel Day, Dirk Nowotka, Vijay Ganesh, Zhengyang Lu
Generated on: 2020-10-01
Description: Translated from a collection of real-world regex queries, AutomataArk, collected by Loris D’Antoni and Fang Wang: https://github.com/lorisdanto/automatark
Application: Evaluate solvers on real-world regex queries
Target solver: Z3str3RE, CVC4, OSTRICH, Z3seq, Z3str3, Z3-Trau
Publications: Berzish, M., Kulczynski, M., Mora, F., Manea, F., Day, J. D., Nowotka, D., & Ganesh, V. (2021, July). An SMT solver for regular expressions and linear arithmetic over string length. In CAV 2021.
|)
(set-info :license "https://creativecommons.org/licenses/by/4.0/")
(set-info :category "industrial")
(set-info :status unsat)

(declare-const X String)
(assert (str.in_re X (re.++ (str.to_re "//") (re.+ (re.union (re.range "a" "z") (re.range "A" "Z") (str.to_re "_") (str.to_re "-"))) (str.to_re ".ee/U\u{a}"))))
(assert (not (str.in_re X (re.++ (str.to_re "//SUS") (re.+ (re.range "0" "9")) (str.to_re "O") (re.+ (re.range "0" "9")) (str.to_re ".jsp?") ((_ re.loop 20 20) (re.union (re.range "a" "z") (re.range "0" "9") (str.to_re "=") (str.to_re "+") (str.to_re "/"))) (str.to_re "/iU\u{a}")))))
(assert (str.in_re X (re.++ (str.to_re "/") (re.union (str.to_re "o") (str.to_re "z")) (str.to_re "/Ri\u{a}"))))
(assert (str.in_re X (re.++ (re.* (re.comp (str.to_re "'"))) (str.to_re "<") (re.* (re.union (str.to_re " ") (str.to_re "\u{9}") (str.to_re "\u{a}") (str.to_re "\u{c}") (str.to_re "\u{d}"))) (str.to_re "Assembly") (re.* (re.union (str.to_re " ") (str.to_re "\u{9}") (str.to_re "\u{a}") (str.to_re "\u{c}") (str.to_re "\u{d}"))) (str.to_re ":") (re.* (re.union (str.to_re " ") (str.to_re "\u{9}") (str.to_re "\u{a}") (str.to_re "\u{c}") (str.to_re "\u{d}"))) (str.to_re "AssemblyVersion") (re.* (re.union (str.to_re " ") (str.to_re "\u{9}") (str.to_re "\u{a}") (str.to_re "\u{c}") (str.to_re "\u{d}"))) (str.to_re "(") (re.* (re.union (str.to_re " ") (str.to_re "\u{9}") (str.to_re "\u{a}") (str.to_re "\u{c}") (str.to_re "\u{d}"))) (str.to_re "\u{22}") (re.union (str.to_re "*") (re.++ (re.+ (re.range "0" "9")) re.allchar (str.to_re "*")) (re.++ (re.+ (re.range "0" "9")) re.allchar (re.+ (re.range "0" "9")) re.allchar (str.to_re "*")) (re.++ (re.+ (re.range "0" "9")) re.allchar (re.+ (re.range "0" "9")) re.allchar (re.+ (re.range "0" "9")) re.allchar (str.to_re "*")) (re.++ (re.+ (re.range "0" "9")) re.allchar (re.+ (re.range "0" "9")) re.allchar (re.+ (re.range "0" "9")) re.allchar (re.+ (re.range "0" "9")))) (str.to_re "\u{22}") (re.* (re.union (str.to_re " ") (str.to_re "\u{9}") (str.to_re "\u{a}") (str.to_re "\u{c}") (str.to_re "\u{d}"))) (str.to_re ")") (re.* (re.union (str.to_re " ") (str.to_re "\u{9}") (str.to_re "\u{a}") (str.to_re "\u{c}") (str.to_re "\u{d}"))) (str.to_re ">") (re.* re.allchar) (str.to_re "\u{a}"))))
(assert (not (str.in_re X (re.++ (str.to_re "/gate.php?reg=") ((_ re.loop 10 10) (re.range "a" "z")) (str.to_re "/U\u{a}")))))
(check-sat)

(exit)
